NAME : lrc208.852758.tour
COMMENT : Cost = 0_852758
COMMENT : Found by LKH [Keld Helsgaun] Fri Sep 15 17:42:02 2017
TYPE : TOUR
DIMENSION : 105
TOUR_SECTION
1
70
99
89
13
12
16
17
48
74
80
79
54
83
100
53
58
50
20
19
49
22
24
26
78
59
76
98
60
88
103
75
87
10
14
11
15
18
61
47
5
71
101
56
69
104
91
66
84
65
86
64
77
90
34
31
33
29
27
28
30
32
35
51
63
85
52
21
23
25
67
57
92
81
105
93
96
68
72
82
62
3
7
8
9
46
6
4
2
102
43
45
44
41
37
36
38
39
40
42
73
55
94
95
97
-1
EOF
